30
2	4	10	11	12	14	16	19	21	22	23	24	25	27	28	29	30	0
1	3	4	5	7	8	9	12	16	18	19	20	21	24	25	26	29	30	0
2	5	8	9	11	20	22	24	25	27	30	0
1	2	5	7	8	13	16	18	20	25	26	28	30	0
2	3	4	7	9	13	18	19	21	22	23	26	28	0
7	11	12	14	15	16	19	20	21	22	25	26	28	0
2	4	5	6	14	18	20	22	26	27	29	30	0
2	3	4	11	12	16	17	21	23	28	30	0
2	3	5	14	17	19	21	22	23	24	25	27	29	30	0
1	14	15	16	19	20	21	24	25	26	29	30	0
1	3	6	8	14	15	16	17	18	20	21	25	28	30	0
1	2	6	8	13	15	16	19	20	25	26	27	28	30	0
4	5	12	15	17	19	20	23	24	25	28	29	0
1	6	7	9	10	11	16	19	20	22	26	27	28	29	0
6	10	11	12	13	23	24	25	26	29	30	0
1	2	4	6	8	10	11	12	14	17	19	20	21	22	24	26	28	30	0
8	9	11	13	16	19	20	21	24	28	30	0
2	4	5	7	11	20	21	23	25	26	0
1	2	5	6	9	10	12	13	14	16	17	22	23	24	27	28	0
2	3	4	6	7	10	11	12	13	14	16	17	18	21	22	24	25	26	27	29	0
1	2	5	6	8	9	10	11	16	17	18	20	23	24	25	26	28	0
1	3	5	6	7	9	14	16	19	20	23	24	26	27	28	0
1	5	8	9	13	15	18	19	21	22	26	28	0
1	2	3	9	10	13	15	16	17	19	20	21	22	26	27	28	30	0
1	2	3	4	6	9	10	11	12	13	15	18	20	21	26	27	28	30	0
2	4	5	6	7	10	12	14	15	16	18	20	21	22	23	24	25	27	29	30	0
1	3	7	9	12	14	19	20	22	24	25	26	0
1	4	5	6	8	11	12	13	14	16	17	19	21	22	23	24	25	30	0
1	2	7	9	10	13	14	15	20	26	0
1	2	3	4	7	8	9	10	11	12	15	16	17	24	25	26	28	0


comments:
random graph
nodes 30
edges 215
rng seed 125 
